NAME: cng_test_instance
OBJSENSE
 MAX
ROWS
 N cost
 L DKP
 L AKP
 L lin_xy_1_0
 L lin_xy_1_1
 L lin_xy_1_2
 L lin_xy_1_3
 L lin_xy_1_4
 L lin_xy_1_5
 L lin_xy_1_6
 L lin_xy_1_7
 L lin_xy_1_8
 L lin_xy_1_9
 L lin_xy_2_0
 L lin_xy_2_1
 L lin_xy_2_2
 L lin_xy_2_3
 L lin_xy_2_4
 L lin_xy_2_5
 L lin_xy_2_6
 L lin_xy_2_7
 L lin_xy_2_8
 L lin_xy_2_9
 L lin_xy_3_0
 L lin_xy_3_1
 L lin_xy_3_2
 L lin_xy_3_3
 L lin_xy_3_4
 L lin_xy_3_5
 L lin_xy_3_6
 L lin_xy_3_7
 L lin_xy_3_8
 L lin_xy_3_9
 L lin_xny_1_0
 L lin_xny_1_1
 L lin_xny_1_2
 L lin_xny_1_3
 L lin_xny_1_4
 L lin_xny_1_5
 L lin_xny_1_6
 L lin_xny_1_7
 L lin_xny_1_8
 L lin_xny_1_9
 L lin_xny_2_0
 L lin_xny_2_1
 L lin_xny_2_2
 L lin_xny_2_3
 L lin_xny_2_4
 L lin_xny_2_5
 L lin_xny_2_6
 L lin_xny_2_7
 L lin_xny_2_8
 L lin_xny_2_9
 L lin_xny_3_0
 L lin_xny_3_1
 L lin_xny_3_2
 L lin_xny_3_3
 L lin_xny_3_4
 L lin_xny_3_5
 L lin_xny_3_6
 L lin_xny_3_7
 L lin_xny_3_8
 L lin_xny_3_9
 L lin_nxy_1_0
 L lin_nxy_1_1
 L lin_nxy_1_2
 L lin_nxy_1_3
 L lin_nxy_1_4
 L lin_nxy_1_5
 L lin_nxy_1_6
 L lin_nxy_1_7
 L lin_nxy_1_8
 L lin_nxy_1_9
 L lin_nxy_2_0
 L lin_nxy_2_1
 L lin_nxy_2_2
 L lin_nxy_2_3
 L lin_nxy_2_4
 L lin_nxy_2_5
 L lin_nxy_2_6
 L lin_nxy_2_7
 L lin_nxy_2_8
 L lin_nxy_2_9
 L lin_nxy_3_0
 L lin_nxy_3_1
 L lin_nxy_3_2
 L lin_nxy_3_3
 L lin_nxy_3_4
 L lin_nxy_3_5
 L lin_nxy_3_6
 L lin_nxy_3_7
 L lin_nxy_3_8
 L lin_nxy_3_9
 L lin_nxny_1_0
 L lin_nxny_1_1
 L lin_nxny_1_2
 L lin_nxny_1_3
 L lin_nxny_1_4
 L lin_nxny_1_5
 L lin_nxny_1_6
 L lin_nxny_1_7
 L lin_nxny_1_8
 L lin_nxny_1_9
 L lin_nxny_2_0
 L lin_nxny_2_1
 L lin_nxny_2_2
 L lin_nxny_2_3
 L lin_nxny_2_4
 L lin_nxny_2_5
 L lin_nxny_2_6
 L lin_nxny_2_7
 L lin_nxny_2_8
 L lin_nxny_2_9
 L lin_nxny_3_0
 L lin_nxny_3_1
 L lin_nxny_3_2
 L lin_nxny_3_3
 L lin_nxny_3_4
 L lin_nxny_3_5
 L lin_nxny_3_6
 L lin_nxny_3_7
 L lin_nxny_3_8
 L lin_nxny_3_9
COLUMNS
 x0 cost 0
 x0 DKP 500
 x0 lin_xy_1_0 -1
 x0 lin_xy_3_0 1
 x0 lin_xny_1_0 -1
 x0 lin_xny_3_0 1
 x0 lin_nxy_1_0 1
 x0 lin_nxy_3_0 -1
 x0 lin_nxny_1_0 1
 x0 lin_nxny_3_0 -1
 x1 cost 0
 x1 DKP 2300
 x1 lin_xy_1_1 -1
 x1 lin_xy_3_1 1
 x1 lin_xny_1_1 -1
 x1 lin_xny_3_1 1
 x1 lin_nxy_1_1 1
 x1 lin_nxy_3_1 -1
 x1 lin_nxny_1_1 1
 x1 lin_nxny_3_1 -1
 x2 cost 0
 x2 DKP 400
 x2 lin_xy_1_2 -1
 x2 lin_xy_3_2 1
 x2 lin_xny_1_2 -1
 x2 lin_xny_3_2 1
 x2 lin_nxy_1_2 1
 x2 lin_nxy_3_2 -1
 x2 lin_nxny_1_2 1
 x2 lin_nxny_3_2 -1
 x3 cost 0
 x3 DKP 2000
 x3 lin_xy_1_3 -1
 x3 lin_xy_3_3 1
 x3 lin_xny_1_3 -1
 x3 lin_xny_3_3 1
 x3 lin_nxy_1_3 1
 x3 lin_nxy_3_3 -1
 x3 lin_nxny_1_3 1
 x3 lin_nxny_3_3 -1
 x4 cost 0
 x4 DKP 2400
 x4 lin_xy_1_4 -1
 x4 lin_xy_3_4 1
 x4 lin_xny_1_4 -1
 x4 lin_xny_3_4 1
 x4 lin_nxy_1_4 1
 x4 lin_nxy_3_4 -1
 x4 lin_nxny_1_4 1
 x4 lin_nxny_3_4 -1
 x5 cost 0
 x5 DKP 800
 x5 lin_xy_1_5 -1
 x5 lin_xy_3_5 1
 x5 lin_xny_1_5 -1
 x5 lin_xny_3_5 1
 x5 lin_nxy_1_5 1
 x5 lin_nxy_3_5 -1
 x5 lin_nxny_1_5 1
 x5 lin_nxny_3_5 -1
 x6 cost 0
 x6 DKP 1500
 x6 lin_xy_1_6 -1
 x6 lin_xy_3_6 1
 x6 lin_xny_1_6 -1
 x6 lin_xny_3_6 1
 x6 lin_nxy_1_6 1
 x6 lin_nxy_3_6 -1
 x6 lin_nxny_1_6 1
 x6 lin_nxny_3_6 -1
 x7 cost 0
 x7 DKP 2400
 x7 lin_xy_1_7 -1
 x7 lin_xy_3_7 1
 x7 lin_xny_1_7 -1
 x7 lin_xny_3_7 1
 x7 lin_nxy_1_7 1
 x7 lin_nxy_3_7 -1
 x7 lin_nxny_1_7 1
 x7 lin_nxny_3_7 -1
 x8 cost 0
 x8 DKP 900
 x8 lin_xy_1_8 -1
 x8 lin_xy_3_8 1
 x8 lin_xny_1_8 -1
 x8 lin_xny_3_8 1
 x8 lin_nxy_1_8 1
 x8 lin_nxy_3_8 -1
 x8 lin_nxny_1_8 1
 x8 lin_nxny_3_8 -1
 x9 cost 0
 x9 DKP 1500
 x9 lin_xy_1_9 -1
 x9 lin_xy_3_9 1
 x9 lin_xny_1_9 -1
 x9 lin_xny_3_9 1
 x9 lin_nxy_1_9 1
 x9 lin_nxy_3_9 -1
 x9 lin_nxny_1_9 1
 x9 lin_nxny_3_9 -1
 y0 cost 0
 y0 AKP 1100
 y0 lin_xy_2_0 -1
 y0 lin_xy_3_0 -1
 y0 lin_xny_2_0 1
 y0 lin_xny_3_0 -1
 y0 lin_nxy_2_0 -1
 y0 lin_nxy_3_0 1
 y0 lin_nxny_2_0 1
 y0 lin_nxny_3_0 -1
 y1 cost 0
 y1 AKP 900
 y1 lin_xy_2_1 -1
 y1 lin_xy_3_1 -1
 y1 lin_xny_2_1 1
 y1 lin_xny_3_1 -1
 y1 lin_nxy_2_1 -1
 y1 lin_nxy_3_1 1
 y1 lin_nxny_2_1 1
 y1 lin_nxny_3_1 -1
 y2 cost 0
 y2 AKP 800
 y2 lin_xy_2_2 -1
 y2 lin_xy_3_2 -1
 y2 lin_xny_2_2 1
 y2 lin_xny_3_2 -1
 y2 lin_nxy_2_2 -1
 y2 lin_nxy_3_2 1
 y2 lin_nxny_2_2 1
 y2 lin_nxny_3_2 -1
 y3 cost 0
 y3 AKP 700
 y3 lin_xy_2_3 -1
 y3 lin_xy_3_3 -1
 y3 lin_xny_2_3 1
 y3 lin_xny_3_3 -1
 y3 lin_nxy_2_3 -1
 y3 lin_nxy_3_3 1
 y3 lin_nxny_2_3 1
 y3 lin_nxny_3_3 -1
 y4 cost 0
 y4 AKP 500
 y4 lin_xy_2_4 -1
 y4 lin_xy_3_4 -1
 y4 lin_xny_2_4 1
 y4 lin_xny_3_4 -1
 y4 lin_nxy_2_4 -1
 y4 lin_nxy_3_4 1
 y4 lin_nxny_2_4 1
 y4 lin_nxny_3_4 -1
 y5 cost 0
 y5 AKP 1700
 y5 lin_xy_2_5 -1
 y5 lin_xy_3_5 -1
 y5 lin_xny_2_5 1
 y5 lin_xny_3_5 -1
 y5 lin_nxy_2_5 -1
 y5 lin_nxy_3_5 1
 y5 lin_nxny_2_5 1
 y5 lin_nxny_3_5 -1
 y6 cost 0
 y6 AKP 800
 y6 lin_xy_2_6 -1
 y6 lin_xy_3_6 -1
 y6 lin_xny_2_6 1
 y6 lin_xny_3_6 -1
 y6 lin_nxy_2_6 -1
 y6 lin_nxy_3_6 1
 y6 lin_nxny_2_6 1
 y6 lin_nxny_3_6 -1
 y7 cost 0
 y7 AKP 1300
 y7 lin_xy_2_7 -1
 y7 lin_xy_3_7 -1
 y7 lin_xny_2_7 1
 y7 lin_xny_3_7 -1
 y7 lin_nxy_2_7 -1
 y7 lin_nxy_3_7 1
 y7 lin_nxny_2_7 1
 y7 lin_nxny_3_7 -1
 y8 cost 0
 y8 AKP 100
 y8 lin_xy_2_8 -1
 y8 lin_xy_3_8 -1
 y8 lin_xny_2_8 1
 y8 lin_xny_3_8 -1
 y8 lin_nxy_2_8 -1
 y8 lin_nxy_3_8 1
 y8 lin_nxny_2_8 1
 y8 lin_nxny_3_8 -1
 y9 cost 0
 y9 AKP 1200
 y9 lin_xy_2_9 -1
 y9 lin_xy_3_9 -1
 y9 lin_xny_2_9 1
 y9 lin_xny_3_9 -1
 y9 lin_nxy_2_9 -1
 y9 lin_nxy_3_9 1
 y9 lin_nxny_2_9 1
 y9 lin_nxny_3_9 -1
 z_xy0 cost 27.200000000000003
 z_xy0 lin_xy_1_0 1
 z_xy0 lin_xy_2_0 1
 z_xy0 lin_xy_3_0 -1
 z_xy1 cost 17.6
 z_xy1 lin_xy_1_1 1
 z_xy1 lin_xy_2_1 1
 z_xy1 lin_xy_3_1 -1
 z_xy2 cost 21.6
 z_xy2 lin_xy_1_2 1
 z_xy2 lin_xy_2_2 1
 z_xy2 lin_xy_3_2 -1
 z_xy3 cost 14.4
 z_xy3 lin_xy_1_3 1
 z_xy3 lin_xy_2_3 1
 z_xy3 lin_xy_3_3 -1
 z_xy4 cost 16.8
 z_xy4 lin_xy_1_4 1
 z_xy4 lin_xy_2_4 1
 z_xy4 lin_xy_3_4 -1
 z_xy5 cost 27.200000000000003
 z_xy5 lin_xy_1_5 1
 z_xy5 lin_xy_2_5 1
 z_xy5 lin_xy_3_5 -1
 z_xy6 cost 36.800000000000004
 z_xy6 lin_xy_1_6 1
 z_xy6 lin_xy_2_6 1
 z_xy6 lin_xy_3_6 -1
 z_xy7 cost 16.8
 z_xy7 lin_xy_1_7 1
 z_xy7 lin_xy_2_7 1
 z_xy7 lin_xy_3_7 -1
 z_xy8 cost 4.0
 z_xy8 lin_xy_1_8 1
 z_xy8 lin_xy_2_8 1
 z_xy8 lin_xy_3_8 -1
 z_xy9 cost 9.600000000000001
 z_xy9 lin_xy_1_9 1
 z_xy9 lin_xy_2_9 1
 z_xy9 lin_xy_3_9 -1
 z_xny0 cost 34.0
 z_xny0 lin_xny_1_0 1
 z_xny0 lin_xny_2_0 1
 z_xny0 lin_xny_3_0 -1
 z_xny1 cost 22.0
 z_xny1 lin_xny_1_1 1
 z_xny1 lin_xny_2_1 1
 z_xny1 lin_xny_3_1 -1
 z_xny2 cost 27.0
 z_xny2 lin_xny_1_2 1
 z_xny2 lin_xny_2_2 1
 z_xny2 lin_xny_3_2 -1
 z_xny3 cost 18.0
 z_xny3 lin_xny_1_3 1
 z_xny3 lin_xny_2_3 1
 z_xny3 lin_xny_3_3 -1
 z_xny4 cost 21.0
 z_xny4 lin_xny_1_4 1
 z_xny4 lin_xny_2_4 1
 z_xny4 lin_xny_3_4 -1
 z_xny5 cost 34.0
 z_xny5 lin_xny_1_5 1
 z_xny5 lin_xny_2_5 1
 z_xny5 lin_xny_3_5 -1
 z_xny6 cost 46.0
 z_xny6 lin_xny_1_6 1
 z_xny6 lin_xny_2_6 1
 z_xny6 lin_xny_3_6 -1
 z_xny7 cost 21.0
 z_xny7 lin_xny_1_7 1
 z_xny7 lin_xny_2_7 1
 z_xny7 lin_xny_3_7 -1
 z_xny8 cost 5.0
 z_xny8 lin_xny_1_8 1
 z_xny8 lin_xny_2_8 1
 z_xny8 lin_xny_3_8 -1
 z_xny9 cost 12.0
 z_xny9 lin_xny_1_9 1
 z_xny9 lin_xny_2_9 1
 z_xny9 lin_xny_3_9 -1
 z_nxy0 cost 21.760000000000005
 z_nxy0 lin_nxy_1_0 1
 z_nxy0 lin_nxy_2_0 1
 z_nxy0 lin_nxy_3_0 -1
 z_nxy1 cost 14.080000000000002
 z_nxy1 lin_nxy_1_1 1
 z_nxy1 lin_nxy_2_1 1
 z_nxy1 lin_nxy_3_1 -1
 z_nxy2 cost 17.280000000000005
 z_nxy2 lin_nxy_1_2 1
 z_nxy2 lin_nxy_2_2 1
 z_nxy2 lin_nxy_3_2 -1
 z_nxy3 cost 11.520000000000003
 z_nxy3 lin_nxy_1_3 1
 z_nxy3 lin_nxy_2_3 1
 z_nxy3 lin_nxy_3_3 -1
 z_nxy4 cost 13.440000000000003
 z_nxy4 lin_nxy_1_4 1
 z_nxy4 lin_nxy_2_4 1
 z_nxy4 lin_nxy_3_4 -1
 z_nxy5 cost 21.760000000000005
 z_nxy5 lin_nxy_1_5 1
 z_nxy5 lin_nxy_2_5 1
 z_nxy5 lin_nxy_3_5 -1
 z_nxy6 cost 29.440000000000005
 z_nxy6 lin_nxy_1_6 1
 z_nxy6 lin_nxy_2_6 1
 z_nxy6 lin_nxy_3_6 -1
 z_nxy7 cost 13.440000000000003
 z_nxy7 lin_nxy_1_7 1
 z_nxy7 lin_nxy_2_7 1
 z_nxy7 lin_nxy_3_7 -1
 z_nxy8 cost 3.2000000000000006
 z_nxy8 lin_nxy_1_8 1
 z_nxy8 lin_nxy_2_8 1
 z_nxy8 lin_nxy_3_8 -1
 z_nxy9 cost 7.6800000000000015
 z_nxy9 lin_nxy_1_9 1
 z_nxy9 lin_nxy_2_9 1
 z_nxy9 lin_nxy_3_9 -1
 z_nxny0 cost 34
 z_nxny0 lin_nxny_1_0 1
 z_nxny0 lin_nxny_2_0 1
 z_nxny0 lin_nxny_3_0 -1
 z_nxny1 cost 22
 z_nxny1 lin_nxny_1_1 1
 z_nxny1 lin_nxny_2_1 1
 z_nxny1 lin_nxny_3_1 -1
 z_nxny2 cost 27
 z_nxny2 lin_nxny_1_2 1
 z_nxny2 lin_nxny_2_2 1
 z_nxny2 lin_nxny_3_2 -1
 z_nxny3 cost 18
 z_nxny3 lin_nxny_1_3 1
 z_nxny3 lin_nxny_2_3 1
 z_nxny3 lin_nxny_3_3 -1
 z_nxny4 cost 21
 z_nxny4 lin_nxny_1_4 1
 z_nxny4 lin_nxny_2_4 1
 z_nxny4 lin_nxny_3_4 -1
 z_nxny5 cost 34
 z_nxny5 lin_nxny_1_5 1
 z_nxny5 lin_nxny_2_5 1
 z_nxny5 lin_nxny_3_5 -1
 z_nxny6 cost 46
 z_nxny6 lin_nxny_1_6 1
 z_nxny6 lin_nxny_2_6 1
 z_nxny6 lin_nxny_3_6 -1
 z_nxny7 cost 21
 z_nxny7 lin_nxny_1_7 1
 z_nxny7 lin_nxny_2_7 1
 z_nxny7 lin_nxny_3_7 -1
 z_nxny8 cost 5
 z_nxny8 lin_nxny_1_8 1
 z_nxny8 lin_nxny_2_8 1
 z_nxny8 lin_nxny_3_8 -1
 z_nxny9 cost 12
 z_nxny9 lin_nxny_1_9 1
 z_nxny9 lin_nxny_2_9 1
 z_nxny9 lin_nxny_3_9 -1
RHS
 rhs DKP 4410
 rhs AKP 2730
 rhs lin_xy_1_0 0
 rhs lin_xy_2_0 0
 rhs lin_xy_3_0 1
 rhs lin_xny_1_0 0
 rhs lin_xny_2_0 1
 rhs lin_xny_3_0 0
 rhs lin_nxy_1_0 1
 rhs lin_nxy_2_0 0
 rhs lin_nxy_3_0 0
 rhs lin_nxny_1_0 1
 rhs lin_nxny_2_0 1
 rhs lin_nxny_3_0 -1
 rhs lin_xy_1_1 0
 rhs lin_xy_2_1 0
 rhs lin_xy_3_1 1
 rhs lin_xny_1_1 0
 rhs lin_xny_2_1 1
 rhs lin_xny_3_1 0
 rhs lin_nxy_1_1 1
 rhs lin_nxy_2_1 0
 rhs lin_nxy_3_1 0
 rhs lin_nxny_1_1 1
 rhs lin_nxny_2_1 1
 rhs lin_nxny_3_1 -1
 rhs lin_xy_1_2 0
 rhs lin_xy_2_2 0
 rhs lin_xy_3_2 1
 rhs lin_xny_1_2 0
 rhs lin_xny_2_2 1
 rhs lin_xny_3_2 0
 rhs lin_nxy_1_2 1
 rhs lin_nxy_2_2 0
 rhs lin_nxy_3_2 0
 rhs lin_nxny_1_2 1
 rhs lin_nxny_2_2 1
 rhs lin_nxny_3_2 -1
 rhs lin_xy_1_3 0
 rhs lin_xy_2_3 0
 rhs lin_xy_3_3 1
 rhs lin_xny_1_3 0
 rhs lin_xny_2_3 1
 rhs lin_xny_3_3 0
 rhs lin_nxy_1_3 1
 rhs lin_nxy_2_3 0
 rhs lin_nxy_3_3 0
 rhs lin_nxny_1_3 1
 rhs lin_nxny_2_3 1
 rhs lin_nxny_3_3 -1
 rhs lin_xy_1_4 0
 rhs lin_xy_2_4 0
 rhs lin_xy_3_4 1
 rhs lin_xny_1_4 0
 rhs lin_xny_2_4 1
 rhs lin_xny_3_4 0
 rhs lin_nxy_1_4 1
 rhs lin_nxy_2_4 0
 rhs lin_nxy_3_4 0
 rhs lin_nxny_1_4 1
 rhs lin_nxny_2_4 1
 rhs lin_nxny_3_4 -1
 rhs lin_xy_1_5 0
 rhs lin_xy_2_5 0
 rhs lin_xy_3_5 1
 rhs lin_xny_1_5 0
 rhs lin_xny_2_5 1
 rhs lin_xny_3_5 0
 rhs lin_nxy_1_5 1
 rhs lin_nxy_2_5 0
 rhs lin_nxy_3_5 0
 rhs lin_nxny_1_5 1
 rhs lin_nxny_2_5 1
 rhs lin_nxny_3_5 -1
 rhs lin_xy_1_6 0
 rhs lin_xy_2_6 0
 rhs lin_xy_3_6 1
 rhs lin_xny_1_6 0
 rhs lin_xny_2_6 1
 rhs lin_xny_3_6 0
 rhs lin_nxy_1_6 1
 rhs lin_nxy_2_6 0
 rhs lin_nxy_3_6 0
 rhs lin_nxny_1_6 1
 rhs lin_nxny_2_6 1
 rhs lin_nxny_3_6 -1
 rhs lin_xy_1_7 0
 rhs lin_xy_2_7 0
 rhs lin_xy_3_7 1
 rhs lin_xny_1_7 0
 rhs lin_xny_2_7 1
 rhs lin_xny_3_7 0
 rhs lin_nxy_1_7 1
 rhs lin_nxy_2_7 0
 rhs lin_nxy_3_7 0
 rhs lin_nxny_1_7 1
 rhs lin_nxny_2_7 1
 rhs lin_nxny_3_7 -1
 rhs lin_xy_1_8 0
 rhs lin_xy_2_8 0
 rhs lin_xy_3_8 1
 rhs lin_xny_1_8 0
 rhs lin_xny_2_8 1
 rhs lin_xny_3_8 0
 rhs lin_nxy_1_8 1
 rhs lin_nxy_2_8 0
 rhs lin_nxy_3_8 0
 rhs lin_nxny_1_8 1
 rhs lin_nxny_2_8 1
 rhs lin_nxny_3_8 -1
 rhs lin_xy_1_9 0
 rhs lin_xy_2_9 0
 rhs lin_xy_3_9 1
 rhs lin_xny_1_9 0
 rhs lin_xny_2_9 1
 rhs lin_xny_3_9 0
 rhs lin_nxy_1_9 1
 rhs lin_nxy_2_9 0
 rhs lin_nxy_3_9 0
 rhs lin_nxny_1_9 1
 rhs lin_nxny_2_9 1
 rhs lin_nxny_3_9 -1
BOUNDS
 LI bound x0 0.0000000
 UI bound x0 1.0000000
 LI bound x1 0.0000000
 UI bound x1 1.0000000
 LI bound x2 0.0000000
 UI bound x2 1.0000000
 LI bound x3 0.0000000
 UI bound x3 1.0000000
 LI bound x4 0.0000000
 UI bound x4 1.0000000
 LI bound x5 0.0000000
 UI bound x5 1.0000000
 LI bound x6 0.0000000
 UI bound x6 1.0000000
 LI bound x7 0.0000000
 UI bound x7 1.0000000
 LI bound x8 0.0000000
 UI bound x8 1.0000000
 LI bound x9 0.0000000
 UI bound x9 1.0000000
 LI bound y0 0.0000000
 UI bound y0 1.0000000
 LI bound y1 0.0000000
 UI bound y1 1.0000000
 LI bound y2 0.0000000
 UI bound y2 1.0000000
 LI bound y3 0.0000000
 UI bound y3 1.0000000
 LI bound y4 0.0000000
 UI bound y4 1.0000000
 LI bound y5 0.0000000
 UI bound y5 1.0000000
 LI bound y6 0.0000000
 UI bound y6 1.0000000
 LI bound y7 0.0000000
 UI bound y7 1.0000000
 LI bound y8 0.0000000
 UI bound y8 1.0000000
 LI bound y9 0.0000000
 UI bound y9 1.0000000
 LI bound z_xy0 0.0000000
 UI bound z_xy0 1.0000000
 LI bound z_xy1 0.0000000
 UI bound z_xy1 1.0000000
 LI bound z_xy2 0.0000000
 UI bound z_xy2 1.0000000
 LI bound z_xy3 0.0000000
 UI bound z_xy3 1.0000000
 LI bound z_xy4 0.0000000
 UI bound z_xy4 1.0000000
 LI bound z_xy5 0.0000000
 UI bound z_xy5 1.0000000
 LI bound z_xy6 0.0000000
 UI bound z_xy6 1.0000000
 LI bound z_xy7 0.0000000
 UI bound z_xy7 1.0000000
 LI bound z_xy8 0.0000000
 UI bound z_xy8 1.0000000
 LI bound z_xy9 0.0000000
 UI bound z_xy9 1.0000000
 LI bound z_xny0 0.0000000
 UI bound z_xny0 1.0000000
 LI bound z_xny1 0.0000000
 UI bound z_xny1 1.0000000
 LI bound z_xny2 0.0000000
 UI bound z_xny2 1.0000000
 LI bound z_xny3 0.0000000
 UI bound z_xny3 1.0000000
 LI bound z_xny4 0.0000000
 UI bound z_xny4 1.0000000
 LI bound z_xny5 0.0000000
 UI bound z_xny5 1.0000000
 LI bound z_xny6 0.0000000
 UI bound z_xny6 1.0000000
 LI bound z_xny7 0.0000000
 UI bound z_xny7 1.0000000
 LI bound z_xny8 0.0000000
 UI bound z_xny8 1.0000000
 LI bound z_xny9 0.0000000
 UI bound z_xny9 1.0000000
 LI bound z_nxy0 0.0000000
 UI bound z_nxy0 1.0000000
 LI bound z_nxy1 0.0000000
 UI bound z_nxy1 1.0000000
 LI bound z_nxy2 0.0000000
 UI bound z_nxy2 1.0000000
 LI bound z_nxy3 0.0000000
 UI bound z_nxy3 1.0000000
 LI bound z_nxy4 0.0000000
 UI bound z_nxy4 1.0000000
 LI bound z_nxy5 0.0000000
 UI bound z_nxy5 1.0000000
 LI bound z_nxy6 0.0000000
 UI bound z_nxy6 1.0000000
 LI bound z_nxy7 0.0000000
 UI bound z_nxy7 1.0000000
 LI bound z_nxy8 0.0000000
 UI bound z_nxy8 1.0000000
 LI bound z_nxy9 0.0000000
 UI bound z_nxy9 1.0000000
 LI bound z_nxny0 0.0000000
 UI bound z_nxny0 1.0000000
 LI bound z_nxny1 0.0000000
 UI bound z_nxny1 1.0000000
 LI bound z_nxny2 0.0000000
 UI bound z_nxny2 1.0000000
 LI bound z_nxny3 0.0000000
 UI bound z_nxny3 1.0000000
 LI bound z_nxny4 0.0000000
 UI bound z_nxny4 1.0000000
 LI bound z_nxny5 0.0000000
 UI bound z_nxny5 1.0000000
 LI bound z_nxny6 0.0000000
 UI bound z_nxny6 1.0000000
 LI bound z_nxny7 0.0000000
 UI bound z_nxny7 1.0000000
 LI bound z_nxny8 0.0000000
 UI bound z_nxny8 1.0000000
 LI bound z_nxny9 0.0000000
 UI bound z_nxny9 1.0000000
ENDATA